Route #1: 26 7 53 11 38 65 66 59 14
Route #2: 19 54 13 57 15 37 20 70 60 71 36 69 61 21 47
Route #3: 44 3 24 49 23 56 41 64 42 43 1 63 16
Route #4: 2 33 73 62 22 28 74 48 30 4
Route #5: 67 34 46 35 8 52 27 5 29 45
Route #6: 32 50 18 55 25 31 10 58 72 39 9
Route #7: 12 40 17 51 6 68 75
Cost 746